JulietBench/Juliet_Based_Patch_Bench/FFmpeg/CWE-189-Numeric-Errors/CVE_2013_0862_f4fb841ad13bab66d4fb0c7ff2a94770df7815d8/solverprocess_frame_obj_Snippet_patch2.smt2
; benchmark generated from python API
(set-info :status unknown)
(declare-fun R () (_ BitVec 32))
(declare-fun rdi () (_ BitVec 64))
(declare-fun rsi () (_ BitVec 64))
(assert
 (let (($x43 (and (distinct (_ bv29 32) R) true)))
 (let ((?x6 ((_ extract 31 0) rdi)))
 (let (($x12 (bvsle (_ bv16 32) ?x6)))
 (let ((?x14 (ite $x12 ?x6 (_ bv16 32))))
 (let ((?x8 ((_ extract 31 0) rsi)))
 (let (($x17 (bvsle (_ bv13 32) ?x8)))
 (let ((?x19 (ite $x17 ?x8 (_ bv13 32))))
 (let ((?x24 (bvadd ?x19 ?x14)))
 (let (($x29 (and (distinct R ?x24) true)))
 (let (($x42 (and $x29 $x43)))
 (let (($x35 (= (_ bv29 32) R)))
 (let (($x28 (= R ?x24)))
 (let (($x44 (and $x28 $x35)))
 (let (($x41 (or $x44 $x42)))
 (not $x41))))))))))))))))
(check-sat)
